
  22    4
  10   10   10   10

   0   0   0   0   0   5 2 3 4 5 12 
   8  10  10  10  10   3 8 7 6 
   8  10  10  10  10   3 9 8 7 
  10  10  10  10  10   4 21 10 9 8 
   2  10  10  10  10   6 21 20 14 13 11 9 
   6  10  10  10  10   5 21 20 14 13 9 
   7  10  10  10  10   5 21 20 15 14 10 
   9  10  10  10  10   5 20 19 17 14 13 
   4  10  10  10  10   4 19 18 17 15 
   7  10  10  10  10   2 17 13 
   2  10  10  10  10   2 17 15 
   8  10  10  10  10   2 19 14 
   3  10  10  10  10   2 18 16 
  10  10  10  10  10   1 16 
   4  10  10  10  10   1 16 
   9  10  10  10  10   1 22
   4  10  10  10  10   1 22
   5  10  10  10  10   1 22
   8  10  10  10  10   1 22
   9  10  10  10  10   1 22
   9  10  10  10  10   1 22
   0   0   0   0   0   0 
